============================[ Problem Statistics ]=============================|                                                                             ||  Number of variables:          4242                                         ||  Number of clauses:           10270                                         ||  Parse time:                   0.67 s                                       ||                                                                             |============================[ Search Statistics ]==============================| Conflicts |          ORIGINAL         |          LEARNT          | Progress ||           |    Vars  Clauses Literals |    Limit  Clauses Lit/Cl |          |===============================================================================|       100 |    1591     6475  1049126 |     2374      100     53 | 62.501 % ||       250 |    1591     6475  1049126 |     2611      250     75 | 62.495 % |===============================================================================restarts              : 3conflicts             : 359            (357 /sec)decisions             : 624            (0.00 % random) (621 /sec)propagations          : 11973          (11913 /sec)conflict literals     : 29279          (94.61 % deleted)CPU time              : 1.005 sSATISFIABLE